c 0.007889032363891602 (encode time in sec)
p cnf 232 676
1 2 3 4 0
1 2 -3 4 0
1 -2 3 5 0
1 -2 -3 4 0
-1 2 3 4 0
-1 2 -3 0
-1 -2 3 0
-1 -2 -3 0
6 7 8 9 0
6 7 -8 9 0
6 -7 8 10 0
6 -7 -8 9 0
-6 7 8 9 0
-6 7 -8 0
-6 -7 8 0
-6 -7 -8 0
11 12 13 14 0
11 12 -13 14 0
11 -12 13 15 0
11 -12 -13 14 0
-11 12 13 14 0
-11 12 -13 0
-11 -12 13 0
-11 -12 -13 0
16 1 2 3 6 7 8 11 12 13 17 0
16 1 2 3 6 7 8 11 12 -13 18 0
16 1 2 3 6 7 8 11 -12 13 20 0
16 1 2 3 6 7 8 11 -12 -13 30 0
16 1 2 3 6 7 8 -11 12 13 19 0
16 1 2 3 6 7 -8 11 12 13 20 0
16 1 2 3 6 7 -8 11 12 -13 29 0
16 1 2 3 6 7 -8 11 -12 13 45 0
16 1 2 3 6 7 -8 11 -12 -13 34 0
16 1 2 3 6 7 -8 -11 12 13 29 0
16 1 2 3 6 -7 8 11 12 13 20 0
16 1 2 3 6 -7 8 11 12 -13 20 0
16 1 2 3 6 -7 8 11 -12 13 21 0
16 1 2 3 6 -7 8 11 -12 -13 38 0
16 1 2 3 6 -7 8 -11 12 13 20 0
16 1 2 3 6 -7 -8 11 12 13 22 0
16 1 2 3 6 -7 -8 11 12 -13 17 0
16 1 2 3 6 -7 -8 11 -12 13 20 0
16 1 2 3 6 -7 -8 11 -12 -13 20 0
16 1 2 3 6 -7 -8 -11 12 13 20 0
16 1 2 3 -6 7 8 11 12 13 23 0
16 1 2 3 -6 7 8 11 12 -13 24 0
16 1 2 3 -6 7 8 11 -12 13 25 0
16 1 2 3 -6 7 8 11 -12 -13 20 0
16 1 2 3 -6 7 8 -11 12 13 20 0
16 1 2 -3 6 7 8 11 12 13 21 0
16 1 2 -3 6 7 8 11 12 -13 29 0
16 1 2 -3 6 7 8 11 -12 13 38 0
16 1 2 -3 6 7 8 11 -12 -13 43 0
16 1 2 -3 6 7 8 -11 12 13 21 0
16 1 2 -3 6 7 -8 11 12 13 20 0
16 1 2 -3 6 7 -8 11 12 -13 29 0
16 1 2 -3 6 7 -8 11 -12 13 42 0
16 1 2 -3 6 7 -8 11 -12 -13 26 0
16 1 2 -3 6 7 -8 -11 12 13 24 0
16 1 2 -3 6 -7 8 11 12 13 20 0
16 1 2 -3 6 -7 8 11 12 -13 17 0
16 1 2 -3 6 -7 8 11 -12 13 24 0
16 1 2 -3 6 -7 8 11 -12 -13 20 0
16 1 2 -3 6 -7 8 -11 12 13 20 0
16 1 2 -3 6 -7 -8 11 12 13 25 0
16 1 2 -3 6 -7 -8 11 12 -13 26 0
16 1 2 -3 6 -7 -8 11 -12 13 25 0
16 1 2 -3 6 -7 -8 11 -12 -13 20 0
16 1 2 -3 6 -7 -8 -11 12 13 20 0
16 1 2 -3 -6 7 8 11 12 13 25 0
16 1 2 -3 -6 7 8 11 12 -13 31 0
16 1 2 -3 -6 7 8 11 -12 13 17 0
16 1 2 -3 -6 7 8 11 -12 -13 17 0
16 1 2 -3 -6 7 8 -11 12 13 23 0
16 1 -2 3 6 7 8 11 12 13 24 0
16 1 -2 3 6 7 8 11 12 -13 29 0
16 1 -2 3 6 7 8 11 -12 13 20 0
16 1 -2 3 6 7 8 11 -12 -13 21 0
16 1 -2 3 6 7 8 -11 12 13 29 0
16 1 -2 3 6 7 -8 11 12 13 24 0
16 1 -2 3 6 7 -8 11 12 -13 20 0
16 1 -2 3 6 7 -8 11 -12 13 29 0
16 1 -2 3 6 7 -8 11 -12 -13 42 0
16 1 -2 3 6 7 -8 -11 12 13 20 0
16 1 -2 3 6 -7 8 11 12 13 20 0
16 1 -2 3 6 -7 8 11 12 -13 20 0
16 1 -2 3 6 -7 8 11 -12 13 21 0
16 1 -2 3 6 -7 8 11 -12 -13 20 0
16 1 -2 3 6 -7 8 -11 12 13 39 0
16 1 -2 3 6 -7 -8 11 12 13 44 0
16 1 -2 3 6 -7 -8 11 12 -13 25 0
16 1 -2 3 6 -7 -8 11 -12 13 26 0
16 1 -2 3 6 -7 -8 11 -12 -13 25 0
16 1 -2 3 6 -7 -8 -11 12 13 20 0
16 1 -2 3 -6 7 8 11 12 13 23 0
16 1 -2 3 -6 7 8 11 12 -13 25 0
16 1 -2 3 -6 7 8 11 -12 13 25 0
16 1 -2 3 -6 7 8 11 -12 -13 17 0
16 1 -2 3 -6 7 8 -11 12 13 17 0
16 1 -2 -3 6 7 8 11 12 13 24 0
16 1 -2 -3 6 7 8 11 12 -13 20 0
16 1 -2 -3 6 7 8 11 -12 13 20 0
16 1 -2 -3 6 7 8 11 -12 -13 27 0
16 1 -2 -3 6 7 8 -11 12 13 27 0
16 1 -2 -3 6 7 -8 11 12 13 24 0
16 1 -2 -3 6 7 -8 11 12 -13 24 0
16 1 -2 -3 6 7 -8 11 -12 13 21 0
16 1 -2 -3 6 7 -8 11 -12 -13 27 0
16 1 -2 -3 6 7 -8 -11 12 13 26 0
16 1 -2 -3 6 -7 8 11 12 13 20 0
16 1 -2 -3 6 -7 8 11 12 -13 25 0
16 1 -2 -3 6 -7 8 11 -12 13 25 0
16 1 -2 -3 6 -7 8 11 -12 -13 26 0
16 1 -2 -3 6 -7 8 -11 12 13 41 0
16 1 -2 -3 6 -7 -8 11 12 13 17 0
16 1 -2 -3 6 -7 -8 11 12 -13 23 0
16 1 -2 -3 6 -7 -8 11 -12 13 25 0
16 1 -2 -3 6 -7 -8 11 -12 -13 20 0
16 1 -2 -3 6 -7 -8 -11 12 13 24 0
16 1 -2 -3 -6 7 8 11 12 13 17 0
16 1 -2 -3 -6 7 8 11 12 -13 17 0
16 1 -2 -3 -6 7 8 11 -12 13 17 0
16 1 -2 -3 -6 7 8 11 -12 -13 26 0
16 1 -2 -3 -6 7 8 -11 12 13 20 0
16 -1 2 3 6 7 8 11 12 13 24 0
16 -1 2 3 6 7 8 11 12 -13 20 0
16 -1 2 3 6 7 8 11 -12 13 24 0
16 -1 2 3 6 7 8 11 -12 -13 24 0
16 -1 2 3 6 7 8 -11 12 13 29 0
16 -1 2 3 6 7 -8 11 12 13 47 0
16 -1 2 3 6 7 -8 11 12 -13 17 0
16 -1 2 3 6 7 -8 11 -12 13 17 0
16 -1 2 3 6 7 -8 11 -12 -13 24 0
16 -1 2 3 6 7 -8 -11 12 13 25 0
16 -1 2 3 6 -7 8 11 12 13 26 0
16 -1 2 3 6 -7 8 11 12 -13 26 0
16 -1 2 3 6 -7 8 11 -12 13 25 0
16 -1 2 3 6 -7 8 11 -12 -13 17 0
16 -1 2 3 6 -7 8 -11 12 13 32 0
16 -1 2 3 6 -7 -8 11 12 13 17 0
16 -1 2 3 6 -7 -8 11 12 -13 23 0
16 -1 2 3 6 -7 -8 11 -12 13 20 0
16 -1 2 3 6 -7 -8 11 -12 -13 25 0
16 -1 2 3 6 -7 -8 -11 12 13 25 0
16 -1 2 3 -6 7 8 11 12 13 20 0
16 -1 2 3 -6 7 8 11 12 -13 24 0
16 -1 2 3 -6 7 8 11 -12 13 24 0
16 -1 2 3 -6 7 8 11 -12 -13 20 0
16 -1 2 3 -6 7 8 -11 12 13 24 0
-16 1 2 3 6 7 8 11 12 13 38 0
-16 1 2 3 6 7 8 11 12 -13 40 0
-16 1 2 3 6 7 8 11 -12 13 20 0
-16 1 2 3 6 7 8 11 -12 -13 23 0
-16 1 2 3 6 7 8 -11 12 13 46 0
-16 1 2 3 6 7 -8 11 12 13 20 0
-16 1 2 3 6 7 -8 11 12 -13 24 0
-16 1 2 3 6 7 -8 11 -12 13 39 0
-16 1 2 3 6 7 -8 11 -12 -13 26 0
-16 1 2 3 6 7 -8 -11 12 13 24 0
-16 1 2 3 6 -7 8 11 12 13 20 0
-16 1 2 3 6 -7 8 11 12 -13 20 0
-16 1 2 3 6 -7 8 11 -12 13 42 0
-16 1 2 3 6 -7 8 11 -12 -13 17 0
-16 1 2 3 6 -7 8 -11 12 13 20 0
-16 1 2 3 6 -7 -8 11 12 13 43 0
-16 1 2 3 6 -7 -8 11 12 -13 38 0
-16 1 2 3 6 -7 -8 11 -12 13 20 0
-16 1 2 3 6 -7 -8 11 -12 -13 20 0
-16 1 2 3 6 -7 -8 -11 12 13 20 0
-16 1 2 3 -6 7 8 11 12 13 30 0
-16 1 2 3 -6 7 8 11 12 -13 29 0
-16 1 2 3 -6 7 8 11 -12 13 36 0
-16 1 2 3 -6 7 8 11 -12 -13 20 0
-16 1 2 3 -6 7 8 -11 12 13 20 0
-16 1 2 -3 6 7 8 11 12 13 42 0
-16 1 2 -3 6 7 8 11 12 -13 24 0
-16 1 2 -3 6 7 8 11 -12 13 17 0
-16 1 2 -3 6 7 8 11 -12 -13 22 0
-16 1 2 -3 6 7 8 -11 12 13 42 0
-16 1 2 -3 6 7 -8 11 12 13 20 0
-16 1 2 -3 6 7 -8 11 12 -13 24 0
-16 1 2 -3 6 7 -8 11 -12 13 21 0
-16 1 2 -3 6 7 -8 11 -12 -13 34 0
-16 1 2 -3 6 7 -8 -11 12 13 29 0
-16 1 2 -3 6 -7 8 11 12 13 20 0
-16 1 2 -3 6 -7 8 11 12 -13 38 0
-16 1 2 -3 6 -7 8 11 -12 13 29 0
-16 1 2 -3 6 -7 8 11 -12 -13 20 0
-16 1 2 -3 6 -7 8 -11 12 13 20 0
-16 1 2 -3 6 -7 -8 11 12 13 36 0
-16 1 2 -3 6 -7 -8 11 12 -13 34 0
-16 1 2 -3 6 -7 -8 11 -12 13 36 0
-16 1 2 -3 6 -7 -8 11 -12 -13 20 0
-16 1 2 -3 6 -7 -8 -11 12 13 20 0
-16 1 2 -3 -6 7 8 11 12 13 36 0
-16 1 2 -3 -6 7 8 11 12 -13 48 0
-16 1 2 -3 -6 7 8 11 -12 13 38 0
-16 1 2 -3 -6 7 8 11 -12 -13 38 0
-16 1 2 -3 -6 7 8 -11 12 13 30 0
-16 1 -2 3 6 7 8 11 12 13 29 0
-16 1 -2 3 6 7 8 11 12 -13 24 0
-16 1 -2 3 6 7 8 11 -12 13 20 0
-16 1 -2 3 6 7 8 11 -12 -13 42 0
-16 1 -2 3 6 7 8 -11 12 13 24 0
-16 1 -2 3 6 7 -8 11 12 13 29 0
-16 1 -2 3 6 7 -8 11 12 -13 20 0
-16 1 -2 3 6 7 -8 11 -12 13 24 0
-16 1 -2 3 6 7 -8 11 -12 -13 21 0
-16 1 -2 3 6 7 -8 -11 12 13 20 0
-16 1 -2 3 6 -7 8 11 12 13 20 0
-16 1 -2 3 6 -7 8 11 12 -13 20 0
-16 1 -2 3 6 -7 8 11 -12 13 42 0
-16 1 -2 3 6 -7 8 11 -12 -13 20 0
-16 1 -2 3 6 -7 8 -11 12 13 45 0
-16 1 -2 3 6 -7 -8 11 12 13 33 0
-16 1 -2 3 6 -7 -8 11 12 -13 36 0
-16 1 -2 3 6 -7 -8 11 -12 13 34 0
-16 1 -2 3 6 -7 -8 11 -12 -13 36 0
-16 1 -2 3 6 -7 -8 -11 12 13 20 0
-16 1 -2 3 -6 7 8 11 12 13 30 0
-16 1 -2 3 -6 7 8 11 12 -13 36 0
-16 1 -2 3 -6 7 8 11 -12 13 36 0
-16 1 -2 3 -6 7 8 11 -12 -13 38 0
-16 1 -2 3 -6 7 8 -11 12 13 38 0
-16 1 -2 -3 6 7 8 11 12 13 29 0
-16 1 -2 -3 6 7 8 11 12 -13 20 0
-16 1 -2 -3 6 7 8 11 -12 13 20 0
-16 1 -2 -3 6 7 8 11 -12 -13 28 0
-16 1 -2 -3 6 7 8 -11 12 13 28 0
-16 1 -2 -3 6 7 -8 11 12 13 29 0
-16 1 -2 -3 6 7 -8 11 12 -13 29 0
-16 1 -2 -3 6 7 -8 11 -12 13 42 0
-16 1 -2 -3 6 7 -8 11 -12 -13 28 0
-16 1 -2 -3 6 7 -8 -11 12 13 34 0
-16 1 -2 -3 6 -7 8 11 12 13 20 0
-16 1 -2 -3 6 -7 8 11 12 -13 36 0
-16 1 -2 -3 6 -7 8 11 -12 13 36 0
-16 1 -2 -3 6 -7 8 11 -12 -13 34 0
-16 1 -2 -3 6 -7 8 -11 12 13 35 0
-16 1 -2 -3 6 -7 -8 11 12 13 38 0
-16 1 -2 -3 6 -7 -8 11 12 -13 30 0
-16 1 -2 -3 6 -7 -8 11 -12 13 36 0
-16 1 -2 -3 6 -7 -8 11 -12 -13 20 0
-16 1 -2 -3 6 -7 -8 -11 12 13 29 0
-16 1 -2 -3 -6 7 8 11 12 13 38 0
-16 1 -2 -3 -6 7 8 11 12 -13 38 0
-16 1 -2 -3 -6 7 8 11 -12 13 38 0
-16 1 -2 -3 -6 7 8 11 -12 -13 34 0
-16 1 -2 -3 -6 7 8 -11 12 13 20 0
-16 -1 2 3 6 7 8 11 12 13 29 0
-16 -1 2 3 6 7 8 11 12 -13 20 0
-16 -1 2 3 6 7 8 11 -12 13 29 0
-16 -1 2 3 6 7 8 11 -12 -13 29 0
-16 -1 2 3 6 7 8 -11 12 13 24 0
-16 -1 2 3 6 7 -8 11 12 13 37 0
-16 -1 2 3 6 7 -8 11 12 -13 38 0
-16 -1 2 3 6 7 -8 11 -12 13 38 0
-16 -1 2 3 6 7 -8 11 -12 -13 29 0
-16 -1 2 3 6 7 -8 -11 12 13 36 0
-16 -1 2 3 6 -7 8 11 12 13 34 0
-16 -1 2 3 6 -7 8 11 12 -13 34 0
-16 -1 2 3 6 -7 8 11 -12 13 36 0
-16 -1 2 3 6 -7 8 11 -12 -13 38 0
-16 -1 2 3 6 -7 8 -11 12 13 49 0
-16 -1 2 3 6 -7 -8 11 12 13 38 0
-16 -1 2 3 6 -7 -8 11 12 -13 30 0
-16 -1 2 3 6 -7 -8 11 -12 13 20 0
-16 -1 2 3 6 -7 -8 11 -12 -13 36 0
-16 -1 2 3 6 -7 -8 -11 12 13 36 0
-16 -1 2 3 -6 7 8 11 12 13 20 0
-16 -1 2 3 -6 7 8 11 12 -13 29 0
-16 -1 2 3 -6 7 8 11 -12 13 29 0
-16 -1 2 3 -6 7 8 11 -12 -13 20 0
-16 -1 2 3 -6 7 8 -11 12 13 29 0
50 51 52 6 7 8 16 53 0
50 51 52 6 7 8 -16 70 0
50 51 52 6 7 -8 16 54 0
50 51 52 6 7 -8 -16 85 0
50 51 52 6 -7 8 16 55 0
50 51 52 6 -7 8 -16 84 0
50 51 52 6 -7 -8 16 56 0
50 51 52 6 -7 -8 -16 87 0
50 51 52 -6 7 8 16 57 0
50 51 52 -6 7 8 -16 58 0
50 51 -52 6 7 8 16 59 0
50 51 -52 6 7 8 -16 70 0
50 51 -52 6 7 -8 16 60 0
50 51 -52 6 7 -8 -16 66 0
50 51 -52 6 -7 8 16 81 0
50 51 -52 6 -7 8 -16 83 0
50 51 -52 6 -7 -8 16 75 0
50 51 -52 6 -7 -8 -16 87 0
50 51 -52 -6 7 8 16 89 0
50 51 -52 -6 7 8 -16 58 0
50 -51 52 6 7 8 16 61 0
50 -51 52 6 7 8 -16 62 0
50 -51 52 6 7 -8 16 73 0
50 -51 52 6 7 -8 -16 82 0
50 -51 52 6 -7 8 16 80 0
50 -51 52 6 -7 8 -16 83 0
50 -51 52 6 -7 -8 16 71 0
50 -51 52 6 -7 -8 -16 87 0
50 -51 52 -6 7 8 16 69 0
50 -51 52 -6 7 8 -16 58 0
50 -51 -52 6 7 8 16 63 0
50 -51 -52 6 7 8 -16 76 0
50 -51 -52 6 7 -8 16 64 0
50 -51 -52 6 7 -8 -16 82 0
50 -51 -52 6 -7 8 16 77 0
50 -51 -52 6 -7 8 -16 84 0
50 -51 -52 6 -7 -8 16 68 0
50 -51 -52 6 -7 -8 -16 88 0
50 -51 -52 -6 7 8 16 89 0
50 -51 -52 -6 7 8 -16 58 0
-50 51 52 6 7 8 16 65 0
-50 51 52 6 7 8 -16 67 0
-50 51 52 6 7 -8 16 78 0
-50 51 52 6 7 -8 -16 72 0
-50 51 52 6 -7 8 16 79 0
-50 51 52 6 -7 8 -16 74 0
-50 51 52 6 -7 -8 16 86 0
-50 51 52 6 -7 -8 -16 87 0
-50 51 52 -6 7 8 16 69 0
-50 51 52 -6 7 8 -16 58 0
-50 51 -52 0
-50 -51 52 0
-50 -51 -52 0
90 91 50 51 52 92 0
90 91 50 51 -52 93 0
90 91 50 -51 52 96 0
90 91 50 -51 -52 94 0
90 91 -50 51 52 95 0
90 -91 50 51 52 97 0
90 -91 50 51 -52 98 0
90 -91 50 -51 52 99 0
90 -91 50 -51 -52 100 0
90 -91 -50 51 52 101 0
-90 91 50 51 52 105 0
-90 91 50 51 -52 102 0
-90 91 50 -51 52 103 0
-90 91 50 -51 -52 104 0
-90 91 -50 51 52 106 0
-90 -91 0
107 108 109 90 91 16 110 0
107 108 109 90 91 -16 111 0
107 108 109 90 -91 16 118 0
107 108 109 90 -91 -16 131 0
107 108 109 -90 91 16 122 0
107 108 109 -90 91 -16 134 0
107 108 -109 90 91 16 112 0
107 108 -109 90 91 -16 113 0
107 108 -109 90 -91 16 123 0
107 108 -109 90 -91 -16 124 0
107 108 -109 -90 91 16 136 0
107 108 -109 -90 91 -16 125 0
107 -108 109 90 91 16 114 0
107 -108 109 90 91 -16 126 0
107 -108 109 90 -91 16 127 0
107 -108 109 90 -91 -16 115 0
107 -108 109 -90 91 16 136 0
107 -108 109 -90 91 -16 125 0
107 -108 -109 90 91 16 116 0
107 -108 -109 90 91 -16 129 0
107 -108 -109 90 -91 16 117 0
107 -108 -109 90 -91 -16 119 0
107 -108 -109 -90 91 16 128 0
107 -108 -109 -90 91 -16 133 0
-107 108 109 90 91 16 130 0
-107 108 109 90 91 -16 121 0
-107 108 109 90 -91 16 120 0
-107 108 109 90 -91 -16 124 0
-107 108 109 -90 91 16 132 0
-107 108 109 -90 91 -16 135 0
-107 108 -109 0
-107 -108 109 0
-107 -108 -109 0
137 138 107 108 109 90 91 11 12 13 185 0
137 138 107 108 109 90 91 11 12 -13 139 0
137 138 107 108 109 90 91 11 -12 13 186 0
137 138 107 108 109 90 91 11 -12 -13 141 0
137 138 107 108 109 90 91 -11 12 13 140 0
137 138 107 108 109 90 -91 11 12 13 142 0
137 138 107 108 109 90 -91 11 12 -13 143 0
137 138 107 108 109 90 -91 11 -12 13 142 0
137 138 107 108 109 90 -91 11 -12 -13 142 0
137 138 107 108 109 90 -91 -11 12 13 142 0
137 138 107 108 109 -90 91 11 12 13 142 0
137 138 107 108 109 -90 91 11 12 -13 142 0
137 138 107 108 109 -90 91 11 -12 13 142 0
137 138 107 108 109 -90 91 11 -12 -13 142 0
137 138 107 108 109 -90 91 -11 12 13 142 0
137 138 107 108 -109 90 91 11 12 13 144 0
137 138 107 108 -109 90 91 11 12 -13 145 0
137 138 107 108 -109 90 91 11 -12 13 146 0
137 138 107 108 -109 90 91 11 -12 -13 147 0
137 138 107 108 -109 90 91 -11 12 13 174 0
137 138 107 108 -109 90 -91 11 12 13 196 0
137 138 107 108 -109 90 -91 11 12 -13 197 0
137 138 107 108 -109 90 -91 11 -12 13 197 0
137 138 107 108 -109 90 -91 11 -12 -13 219 0
137 138 107 108 -109 90 -91 -11 12 13 179 0
137 138 107 108 -109 -90 91 11 12 13 142 0
137 138 107 108 -109 -90 91 11 12 -13 142 0
137 138 107 108 -109 -90 91 11 -12 13 196 0
137 138 107 108 -109 -90 91 11 -12 -13 142 0
137 138 107 108 -109 -90 91 -11 12 13 197 0
137 138 107 -108 109 90 91 11 12 13 155 0
137 138 107 -108 109 90 91 11 12 -13 193 0
137 138 107 -108 109 90 91 11 -12 13 187 0
137 138 107 -108 109 90 91 11 -12 -13 215 0
137 138 107 -108 109 90 91 -11 12 13 188 0
137 138 107 -108 109 90 -91 11 12 13 231 0
137 138 107 -108 109 90 -91 11 12 -13 225 0
137 138 107 -108 109 90 -91 11 -12 13 142 0
137 138 107 -108 109 90 -91 11 -12 -13 226 0
137 138 107 -108 109 90 -91 -11 12 13 169 0
137 138 107 -108 109 -90 91 11 12 13 142 0
137 138 107 -108 109 -90 91 11 12 -13 196 0
137 138 107 -108 109 -90 91 11 -12 13 196 0
137 138 107 -108 109 -90 91 11 -12 -13 142 0
137 138 107 -108 109 -90 91 -11 12 13 142 0
137 138 107 -108 -109 90 91 11 12 13 152 0
137 138 107 -108 -109 90 91 11 12 -13 190 0
137 138 107 -108 -109 90 91 11 -12 13 221 0
137 138 107 -108 -109 90 91 11 -12 -13 211 0
137 138 107 -108 -109 90 91 -11 12 13 158 0
137 138 107 -108 -109 90 -91 11 12 13 204 0
137 138 107 -108 -109 90 -91 11 12 -13 226 0
137 138 107 -108 -109 90 -91 11 -12 13 225 0
137 138 107 -108 -109 90 -91 11 -12 -13 225 0
137 138 107 -108 -109 90 -91 -11 12 13 201 0
137 138 107 -108 -109 -90 91 11 12 13 231 0
137 138 107 -108 -109 -90 91 11 12 -13 156 0
137 138 107 -108 -109 -90 91 11 -12 13 231 0
137 138 107 -108 -109 -90 91 11 -12 -13 231 0
137 138 107 -108 -109 -90 91 -11 12 13 196 0
137 138 -107 108 109 90 91 11 12 13 196 0
137 138 -107 108 109 90 91 11 12 -13 198 0
137 138 -107 108 109 90 91 11 -12 13 153 0
137 138 -107 108 109 90 91 11 -12 -13 196 0
137 138 -107 108 109 90 91 -11 12 13 196 0
137 138 -107 108 109 90 -91 11 12 13 231 0
137 138 -107 108 109 90 -91 11 12 -13 207 0
137 138 -107 108 109 90 -91 11 -12 13 179 0
137 138 -107 108 109 90 -91 11 -12 -13 222 0
137 138 -107 108 109 90 -91 -11 12 13 231 0
137 138 -107 108 109 -90 91 11 12 13 156 0
137 138 -107 108 109 -90 91 11 12 -13 199 0
137 138 -107 108 109 -90 91 11 -12 13 200 0
137 138 -107 108 109 -90 91 11 -12 -13 176 0
137 138 -107 108 109 -90 91 -11 12 13 208 0
137 -138 107 108 109 90 91 11 12 13 214 0
137 -138 107 108 109 90 91 11 12 -13 173 0
137 -138 107 108 109 90 91 11 -12 13 218 0
137 -138 107 108 109 90 91 11 -12 -13 202 0
137 -138 107 108 109 90 91 -11 12 13 209 0
137 -138 107 108 109 90 -91 11 12 13 142 0
137 -138 107 108 109 90 -91 11 12 -13 197 0
137 -138 107 108 109 90 -91 11 -12 13 142 0
137 -138 107 108 109 90 -91 11 -12 -13 142 0
137 -138 107 108 109 90 -91 -11 12 13 142 0
137 -138 107 108 109 -90 91 11 12 13 142 0
137 -138 107 108 109 -90 91 11 12 -13 142 0
137 -138 107 108 109 -90 91 11 -12 13 142 0
137 -138 107 108 109 -90 91 11 -12 -13 142 0
137 -138 107 108 109 -90 91 -11 12 13 142 0
137 -138 107 108 -109 90 91 11 12 13 159 0
137 -138 107 108 -109 90 91 11 12 -13 157 0
137 -138 107 108 -109 90 91 11 -12 13 170 0
137 -138 107 108 -109 90 91 11 -12 -13 228 0
137 -138 107 108 -109 90 91 -11 12 13 206 0
137 -138 107 108 -109 90 -91 11 12 13 196 0
137 -138 107 108 -109 90 -91 11 12 -13 143 0
137 -138 107 108 -109 90 -91 11 -12 13 143 0
137 -138 107 108 -109 90 -91 11 -12 -13 219 0
137 -138 107 108 -109 90 -91 -11 12 13 175 0
137 -138 107 108 -109 -90 91 11 12 13 142 0
137 -138 107 108 -109 -90 91 11 12 -13 142 0
137 -138 107 108 -109 -90 91 11 -12 13 196 0
137 -138 107 108 -109 -90 91 11 -12 -13 142 0
137 -138 107 108 -109 -90 91 -11 12 13 143 0
137 -138 107 -108 109 90 91 11 12 13 157 0
137 -138 107 -108 109 90 91 11 12 -13 203 0
137 -138 107 -108 109 90 91 11 -12 13 230 0
137 -138 107 -108 109 90 91 11 -12 -13 161 0
137 -138 107 -108 109 90 91 -11 12 13 188 0
137 -138 107 -108 109 90 -91 11 12 13 220 0
137 -138 107 -108 109 90 -91 11 12 -13 168 0
137 -138 107 -108 109 90 -91 11 -12 13 142 0
137 -138 107 -108 109 90 -91 11 -12 -13 203 0
137 -138 107 -108 109 90 -91 -11 12 13 180 0
137 -138 107 -108 109 -90 91 11 12 13 142 0
137 -138 107 -108 109 -90 91 11 12 -13 196 0
137 -138 107 -108 109 -90 91 11 -12 13 196 0
137 -138 107 -108 109 -90 91 11 -12 -13 142 0
137 -138 107 -108 109 -90 91 -11 12 13 142 0
137 -138 107 -108 -109 90 91 11 12 13 152 0
137 -138 107 -108 -109 90 91 11 12 -13 221 0
137 -138 107 -108 -109 90 91 11 -12 13 216 0
137 -138 107 -108 -109 90 91 11 -12 -13 189 0
137 -138 107 -108 -109 90 91 -11 12 13 148 0
137 -138 107 -108 -109 90 -91 11 12 13 204 0
137 -138 107 -108 -109 90 -91 11 12 -13 226 0
137 -138 107 -108 -109 90 -91 11 -12 13 168 0
137 -138 107 -108 -109 90 -91 11 -12 -13 168 0
137 -138 107 -108 -109 90 -91 -11 12 13 160 0
137 -138 107 -108 -109 -90 91 11 12 13 231 0
137 -138 107 -108 -109 -90 91 11 12 -13 156 0
137 -138 107 -108 -109 -90 91 11 -12 13 231 0
137 -138 107 -108 -109 -90 91 11 -12 -13 231 0
137 -138 107 -108 -109 -90 91 -11 12 13 196 0
137 -138 -107 108 109 90 91 11 12 13 196 0
137 -138 -107 108 109 90 91 11 12 -13 198 0
137 -138 -107 108 109 90 91 11 -12 13 212 0
137 -138 -107 108 109 90 91 11 -12 -13 196 0
137 -138 -107 108 109 90 91 -11 12 13 196 0
137 -138 -107 108 109 90 -91 11 12 13 231 0
137 -138 -107 108 109 90 -91 11 12 -13 207 0
137 -138 -107 108 109 90 -91 11 -12 13 179 0
137 -138 -107 108 109 90 -91 11 -12 -13 160 0
137 -138 -107 108 109 90 -91 -11 12 13 231 0
137 -138 -107 108 109 -90 91 11 12 13 156 0
137 -138 -107 108 109 -90 91 11 12 -13 199 0
137 -138 -107 108 109 -90 91 11 -12 13 200 0
137 -138 -107 108 109 -90 91 11 -12 -13 176 0
137 -138 -107 108 109 -90 91 -11 12 13 208 0
-137 138 107 108 109 90 91 11 12 13 214 0
-137 138 107 108 109 90 91 11 12 -13 173 0
-137 138 107 108 109 90 91 11 -12 13 177 0
-137 138 107 108 109 90 91 11 -12 -13 202 0
-137 138 107 108 109 90 91 -11 12 13 192 0
-137 138 107 108 109 90 -91 11 12 13 142 0
-137 138 107 108 109 90 -91 11 12 -13 197 0
-137 138 107 108 109 90 -91 11 -12 13 142 0
-137 138 107 108 109 90 -91 11 -12 -13 142 0
-137 138 107 108 109 90 -91 -11 12 13 142 0
-137 138 107 108 109 -90 91 11 12 13 142 0
-137 138 107 108 109 -90 91 11 12 -13 142 0
-137 138 107 108 109 -90 91 11 -12 13 142 0
-137 138 107 108 109 -90 91 11 -12 -13 142 0
-137 138 107 108 109 -90 91 -11 12 13 142 0
-137 138 107 108 -109 90 91 11 12 13 159 0
-137 138 107 108 -109 90 91 11 12 -13 157 0
-137 138 107 108 -109 90 91 11 -12 13 205 0
-137 138 107 108 -109 90 91 11 -12 -13 213 0
-137 138 107 108 -109 90 91 -11 12 13 166 0
-137 138 107 108 -109 90 -91 11 12 13 154 0
-137 138 107 108 -109 90 -91 11 12 -13 197 0
-137 138 107 108 -109 90 -91 11 -12 13 197 0
-137 138 107 108 -109 90 -91 11 -12 -13 156 0
-137 138 107 108 -109 90 -91 -11 12 13 179 0
-137 138 107 108 -109 -90 91 11 12 13 142 0
-137 138 107 108 -109 -90 91 11 12 -13 142 0
-137 138 107 108 -109 -90 91 11 -12 13 154 0
-137 138 107 108 -109 -90 91 11 -12 -13 142 0
-137 138 107 108 -109 -90 91 -11 12 13 197 0
-137 138 107 -108 109 90 91 11 12 13 217 0
-137 138 107 -108 109 90 91 11 12 -13 226 0
-137 138 107 -108 109 90 91 11 -12 13 230 0
-137 138 107 -108 109 90 91 11 -12 -13 184 0
-137 138 107 -108 109 90 91 -11 12 13 194 0
-137 138 107 -108 109 90 -91 11 12 13 220 0
-137 138 107 -108 109 90 -91 11 12 -13 210 0
-137 138 107 -108 109 90 -91 11 -12 13 142 0
-137 138 107 -108 109 90 -91 11 -12 -13 193 0
-137 138 107 -108 109 90 -91 -11 12 13 169 0
-137 138 107 -108 109 -90 91 11 12 13 142 0
-137 138 107 -108 109 -90 91 11 12 -13 154 0
-137 138 107 -108 109 -90 91 11 -12 13 154 0
-137 138 107 -108 109 -90 91 11 -12 -13 142 0
-137 138 107 -108 109 -90 91 -11 12 13 142 0
-137 138 107 -108 -109 90 91 11 12 13 162 0
-137 138 107 -108 -109 90 91 11 12 -13 216 0
-137 138 107 -108 -109 90 91 11 -12 13 190 0
-137 138 107 -108 -109 90 91 11 -12 -13 149 0
-137 138 107 -108 -109 90 91 -11 12 13 211 0
-137 138 107 -108 -109 90 -91 11 12 13 191 0
-137 138 107 -108 -109 90 -91 11 12 -13 193 0
-137 138 107 -108 -109 90 -91 11 -12 13 210 0
-137 138 107 -108 -109 90 -91 11 -12 -13 210 0
-137 138 107 -108 -109 90 -91 -11 12 13 160 0
-137 138 107 -108 -109 -90 91 11 12 13 220 0
-137 138 107 -108 -109 -90 91 11 12 -13 171 0
-137 138 107 -108 -109 -90 91 11 -12 13 220 0
-137 138 107 -108 -109 -90 91 11 -12 -13 220 0
-137 138 107 -108 -109 -90 91 -11 12 13 154 0
-137 138 -107 108 109 90 91 11 12 13 196 0
-137 138 -107 108 109 90 91 11 12 -13 198 0
-137 138 -107 108 109 90 91 11 -12 13 212 0
-137 138 -107 108 109 90 91 11 -12 -13 196 0
-137 138 -107 108 109 90 91 -11 12 13 196 0
-137 138 -107 108 109 90 -91 11 12 13 220 0
-137 138 -107 108 109 90 -91 11 12 -13 163 0
-137 138 -107 108 109 90 -91 11 -12 13 179 0
-137 138 -107 108 109 90 -91 11 -12 -13 160 0
-137 138 -107 108 109 90 -91 -11 12 13 220 0
-137 138 -107 108 109 -90 91 11 12 13 172 0
-137 138 -107 108 109 -90 91 11 12 -13 199 0
-137 138 -107 108 109 -90 91 11 -12 13 200 0
-137 138 -107 108 109 -90 91 11 -12 -13 151 0
-137 138 -107 108 109 -90 91 -11 12 13 164 0
-137 -138 107 108 109 90 91 11 12 13 214 0
-137 -138 107 108 109 90 91 11 12 -13 173 0
-137 -138 107 108 109 90 91 11 -12 13 177 0
-137 -138 107 108 109 90 91 11 -12 -13 202 0
-137 -138 107 108 109 90 91 -11 12 13 192 0
-137 -138 107 108 109 90 -91 11 12 13 142 0
-137 -138 107 108 109 90 -91 11 12 -13 197 0
-137 -138 107 108 109 90 -91 11 -12 13 142 0
-137 -138 107 108 109 90 -91 11 -12 -13 142 0
-137 -138 107 108 109 90 -91 -11 12 13 142 0
-137 -138 107 108 109 -90 91 11 12 13 142 0
-137 -138 107 108 109 -90 91 11 12 -13 142 0
-137 -138 107 108 109 -90 91 11 -12 13 142 0
-137 -138 107 108 109 -90 91 11 -12 -13 142 0
-137 -138 107 108 109 -90 91 -11 12 13 142 0
-137 -138 107 108 -109 90 91 11 12 13 229 0
-137 -138 107 108 -109 90 91 11 12 -13 232 0
-137 -138 107 108 -109 90 91 11 -12 13 205 0
-137 -138 107 108 -109 90 91 11 -12 -13 213 0
-137 -138 107 108 -109 90 91 -11 12 13 166 0
-137 -138 107 108 -109 90 -91 11 12 13 196 0
-137 -138 107 108 -109 90 -91 11 12 -13 197 0
-137 -138 107 108 -109 90 -91 11 -12 13 197 0
-137 -138 107 108 -109 90 -91 11 -12 -13 156 0
-137 -138 107 108 -109 90 -91 -11 12 13 179 0
-137 -138 107 108 -109 -90 91 11 12 13 142 0
-137 -138 107 108 -109 -90 91 11 12 -13 142 0
-137 -138 107 108 -109 -90 91 11 -12 13 196 0
-137 -138 107 108 -109 -90 91 11 -12 -13 142 0
-137 -138 107 108 -109 -90 91 -11 12 13 197 0
-137 -138 107 -108 109 90 91 11 12 13 232 0
-137 -138 107 -108 109 90 91 11 12 -13 226 0
-137 -138 107 -108 109 90 91 11 -12 13 150 0
-137 -138 107 -108 109 90 91 11 -12 -13 181 0
-137 -138 107 -108 109 90 91 -11 12 13 194 0
-137 -138 107 -108 109 90 -91 11 12 13 231 0
-137 -138 107 -108 109 90 -91 11 12 -13 225 0
-137 -138 107 -108 109 90 -91 11 -12 13 142 0
-137 -138 107 -108 109 90 -91 11 -12 -13 226 0
-137 -138 107 -108 109 90 -91 -11 12 13 182 0
-137 -138 107 -108 109 -90 91 11 12 13 142 0
-137 -138 107 -108 109 -90 91 11 12 -13 196 0
-137 -138 107 -108 109 -90 91 11 -12 13 196 0
-137 -138 107 -108 109 -90 91 11 -12 -13 142 0
-137 -138 107 -108 109 -90 91 -11 12 13 142 0
-137 -138 107 -108 -109 90 91 11 12 13 152 0
-137 -138 107 -108 -109 90 91 11 12 -13 190 0
-137 -138 107 -108 -109 90 91 11 -12 13 190 0
-137 -138 107 -108 -109 90 91 11 -12 -13 211 0
-137 -138 107 -108 -109 90 91 -11 12 13 211 0
-137 -138 107 -108 -109 90 -91 11 12 13 165 0
-137 -138 107 -108 -109 90 -91 11 12 -13 203 0
-137 -138 107 -108 -109 90 -91 11 -12 13 225 0
-137 -138 107 -108 -109 90 -91 11 -12 -13 225 0
-137 -138 107 -108 -109 90 -91 -11 12 13 222 0
-137 -138 107 -108 -109 -90 91 11 12 13 220 0
-137 -138 107 -108 -109 -90 91 11 12 -13 172 0
-137 -138 107 -108 -109 -90 91 11 -12 13 220 0
-137 -138 107 -108 -109 -90 91 11 -12 -13 220 0
-137 -138 107 -108 -109 -90 91 -11 12 13 196 0
-137 -138 -107 108 109 90 91 11 12 13 154 0
-137 -138 -107 108 109 90 91 11 12 -13 227 0
-137 -138 -107 108 109 90 91 11 -12 13 195 0
-137 -138 -107 108 109 90 91 11 -12 -13 154 0
-137 -138 -107 108 109 90 91 -11 12 13 154 0
-137 -138 -107 108 109 90 -91 11 12 13 220 0
-137 -138 -107 108 109 90 -91 11 12 -13 223 0
-137 -138 -107 108 109 90 -91 11 -12 13 175 0
-137 -138 -107 108 109 90 -91 11 -12 -13 201 0
-137 -138 -107 108 109 90 -91 -11 12 13 220 0
-137 -138 -107 108 109 -90 91 11 12 13 171 0
-137 -138 -107 108 109 -90 91 11 12 -13 224 0
-137 -138 -107 108 109 -90 91 11 -12 13 178 0
-137 -138 -107 108 109 -90 91 11 -12 -13 183 0
-137 -138 -107 108 109 -90 91 -11 12 13 167 0
